Minimize
 obj: 1.0 x1
Subject To
 c1: - 1.0 x5 + 1.0 x2 + 1.0 x20 + 1.0 x21 + 1.0 x22 + 1.0 x23 - 1.0 x8 - 1.0 x9 - 1.0 x10 - 1.0 x11 == -86.0
 c2: - 1.0 x5 + 1.0 x2 + 1.0 x24 + 1.0 x25 + 1.0 x26 + 1.0 x27 - 1.0 x12 - 1.0 x13 - 1.0 x14 - 1.0 x15 == -86.0
 c3: - 1.0 x5 + 1.0 x2 + 1.0 x28 + 1.0 x29 + 1.0 x30 + 1.0 x31 - 1.0 x16 - 1.0 x17 - 1.0 x18 - 1.0 x19 == -86.0
 c4: - 1.0 x6 + 1.0 x3 + 1.0 x20 + 1.0 x21 + 1.0 x22 + 1.0 x23 - 1.0 x8 - 1.0 x9 - 1.0 x10 - 1.0 x11 == -75.0
 c5: - 1.0 x6 + 1.0 x3 + 1.0 x24 + 1.0 x25 + 1.0 x26 + 1.0 x27 - 1.0 x12 - 1.0 x13 - 1.0 x14 - 1.0 x15 == -75.0
 c6: - 1.0 x6 + 1.0 x3 + 1.0 x28 + 1.0 x29 + 1.0 x30 + 1.0 x31 - 1.0 x16 - 1.0 x17 - 1.0 x18 - 1.0 x19 == -75.0
 c7: - 1.0 x7 + 1.0 x4 + 1.0 x20 + 1.0 x21 + 1.0 x22 + 1.0 x23 - 1.0 x8 - 1.0 x9 - 1.0 x10 - 1.0 x11 == -74.0
 c8: - 1.0 x7 + 1.0 x4 + 1.0 x24 + 1.0 x25 + 1.0 x26 + 1.0 x27 - 1.0 x12 - 1.0 x13 - 1.0 x14 - 1.0 x15 == -74.0
 c9: - 1.0 x7 + 1.0 x4 + 1.0 x28 + 1.0 x29 + 1.0 x30 + 1.0 x31 - 1.0 x16 - 1.0 x17 - 1.0 x18 - 1.0 x19 == -74.0
 c10: 1.0 x2 + 10000000.0 x44 <= 10000000.0
 c11: 1.0 x3 + 10000000.0 x45 <= 10000000.0
 c12: 1.0 x4 + 10000000.0 x46 <= 10000000.0
 c13: 1.0 x5 - 10000000.0 x44 <= -0.0
 c14: 1.0 x6 - 10000000.0 x45 <= -0.0
 c15: 1.0 x7 - 10000000.0 x46 <= -0.0
 c16: 1.0 x32 == 2800.0
 c17: 1.0 x33 == 3400.0
 c18: 1.0 x34 == 2500.0
 c19: 1.0 x35 == 3200.0
 c20: - 180.0 x8 + 180.0 x20 - 1.0 x32 + 1.0 x59 == -0.0
 c21: - 180.0 x9 + 180.0 x21 - 1.0 x33 + 1.0 x60 == -0.0
 c22: - 180.0 x10 + 180.0 x22 - 1.0 x34 + 1.0 x61 == -0.0
 c23: - 180.0 x11 + 180.0 x23 - 1.0 x35 + 1.0 x62 == -0.0
 c24: - 180.0 x12 + 180.0 x24 - 1.0 x36 + 1.0 x63 == -0.0
 c25: - 180.0 x13 + 180.0 x25 - 1.0 x37 + 1.0 x64 == -0.0
 c26: - 180.0 x14 + 180.0 x26 - 1.0 x38 + 1.0 x65 == -0.0
 c27: - 180.0 x15 + 180.0 x27 - 1.0 x39 + 1.0 x66 == -0.0
 c28: - 180.0 x16 + 180.0 x28 - 1.0 x40 + 1.0 x67 == -0.0
 c29: - 180.0 x17 + 180.0 x29 - 1.0 x41 + 1.0 x68 == -0.0
 c30: - 180.0 x18 + 180.0 x30 - 1.0 x42 + 1.0 x69 == -0.0
 c31: - 180.0 x19 + 180.0 x31 - 1.0 x43 + 1.0 x70 == -0.0
 c32: 1.0 x36 - 1.0 x59 == -0.0
 c33: 1.0 x37 - 1.0 x60 == -0.0
 c34: 1.0 x38 - 1.0 x61 == -0.0
 c35: 1.0 x39 - 1.0 x62 == -0.0
 c36: 1.0 x40 - 1.0 x63 == -0.0
 c37: 1.0 x41 - 1.0 x64 == -0.0
 c38: 1.0 x42 - 1.0 x65 == -0.0
 c39: 1.0 x43 - 1.0 x66 == -0.0
 c40: 1.0 x8 + 100000.0 x47 <= 100000.0
 c41: 1.0 x9 + 100000.0 x48 <= 100000.0
 c42: 1.0 x10 + 100000.0 x49 <= 100000.0
 c43: 1.0 x11 + 100000.0 x50 <= 100000.0
 c44: 1.0 x12 + 100000.0 x51 <= 100000.0
 c45: 1.0 x13 + 100000.0 x52 <= 100000.0
 c46: 1.0 x14 + 100000.0 x53 <= 100000.0
 c47: 1.0 x15 + 100000.0 x54 <= 100000.0
 c48: 1.0 x16 + 100000.0 x55 <= 100000.0
 c49: 1.0 x17 + 100000.0 x56 <= 100000.0
 c50: 1.0 x18 + 100000.0 x57 <= 100000.0
 c51: 1.0 x19 + 100000.0 x58 <= 100000.0
 c52: 1.0 x20 - 100000.0 x47 <= -0.0
 c53: 1.0 x21 - 100000.0 x48 <= -0.0
 c54: 1.0 x22 - 100000.0 x49 <= -0.0
 c55: 1.0 x23 - 100000.0 x50 <= -0.0
 c56: 1.0 x24 - 100000.0 x51 <= -0.0
 c57: 1.0 x25 - 100000.0 x52 <= -0.0
 c58: 1.0 x26 - 100000.0 x53 <= -0.0
 c59: 1.0 x27 - 100000.0 x54 <= -0.0
 c60: 1.0 x28 - 100000.0 x55 <= -0.0
 c61: 1.0 x29 - 100000.0 x56 <= -0.0
 c62: 1.0 x30 - 100000.0 x57 <= -0.0
 c63: 1.0 x31 - 100000.0 x58 <= -0.0
 c64: - 0.1 x5 - 0.1 x6 - 0.1 x7 + 0.13 x2 + 0.13 x3 + 0.13 x4 - 1.0 x1 <= -0.0
Bounds
 x5 <= 10.0
 x6 <= 30.0
 x7 <= 20.0
 x8 <= 26.666666666666668
 x9 <= 26.666666666666668
 x10 <= 26.666666666666668
 x11 <= 26.666666666666668
 x12 <= 26.666666666666668
 x13 <= 26.666666666666668
 x14 <= 26.666666666666668
 x15 <= 26.666666666666668
 x16 <= 26.666666666666668
 x17 <= 26.666666666666668
 x18 <= 26.666666666666668
 x19 <= 26.666666666666668
 x20 <= 26.666666666666668
 x21 <= 26.666666666666668
 x22 <= 26.666666666666668
 x23 <= 26.666666666666668
 x24 <= 26.666666666666668
 x25 <= 26.666666666666668
 x26 <= 26.666666666666668
 x27 <= 26.666666666666668
 x28 <= 26.666666666666668
 x29 <= 26.666666666666668
 x30 <= 26.666666666666668
 x31 <= 26.666666666666668
 x59 <= 4800.0
 x60 <= 4800.0
 x61 <= 4800.0
 x62 <= 4800.0
 x63 <= 4800.0
 x64 <= 4800.0
 x65 <= 4800.0
 x66 <= 4800.0
 x67 <= 4800.0
 x68 <= 4800.0
 x69 <= 4800.0
 x70 <= 4800.0
 0.0 <= x2
 0.0 <= x3
 0.0 <= x4
 0.0 <= x5
 0.0 <= x6
 0.0 <= x7
 0.0 <= x8
 0.0 <= x9
 0.0 <= x10
 0.0 <= x11
 0.0 <= x12
 0.0 <= x13
 0.0 <= x14
 0.0 <= x15
 0.0 <= x16
 0.0 <= x17
 0.0 <= x18
 0.0 <= x19
 0.0 <= x20
 0.0 <= x21
 0.0 <= x22
 0.0 <= x23
 0.0 <= x24
 0.0 <= x25
 0.0 <= x26
 0.0 <= x27
 0.0 <= x28
 0.0 <= x29
 0.0 <= x30
 0.0 <= x31
 1800.0 <= x59
 1800.0 <= x60
 1800.0 <= x61
 1800.0 <= x62
 1800.0 <= x63
 1800.0 <= x64
 1800.0 <= x65
 1800.0 <= x66
 1800.0 <= x67
 1800.0 <= x68
 1800.0 <= x69
 1800.0 <= x70
 x1 free
 x32 free
 x33 free
 x34 free
 x35 free
 x36 free
 x37 free
 x38 free
 x39 free
 x40 free
 x41 free
 x42 free
 x43 free
 x44 free
 x45 free
 x46 free
 x47 free
 x48 free
 x49 free
 x50 free
 x51 free
 x52 free
 x53 free
 x54 free
 x55 free
 x56 free
 x57 free
 x58 free
Binary
 x44
x45
x46
x47
x48
x49
x50
x51
x52
x53
x54
x55
x56
x57
x58
End